p tw 130 300
0 1
0 2
0 18
0 19
0 34
0 35
0 40
0 41
0 32
0 52
0 15
0 61
0 46
0 73
0 112
0 113
0 117
0 118
0 63
0 101
0 91
0 126
1 2
1 33
1 86
2 17
2 121
3 4
3 5
3 33
3 63
4 5
4 14
4 128
5 66
5 67
5 70
5 71
5 76
5 77
5 80
5 85
5 21
5 116
5 19
5 95
5 106
5 124
6 7
6 8
7 8
7 23
7 86
8 25
8 26
8 47
8 56
8 24
8 39
8 78
8 79
8 83
8 84
8 64
8 92
8 103
8 104
8 96
8 115
8 27
8 105
8 41
8 129
9 10
9 11
10 11
10 36
10 37
10 61
10 62
10 66
10 98
10 44
10 52
10 12
10 120
10 20
10 125
11 23
11 24
12 13
12 14
12 120
13 14
13 29
13 122
14 27
14 28
14 38
14 39
14 46
14 47
14 57
14 58
14 76
14 82
14 89
14 91
14 36
14 94
14 16
14 96
14 50
14 90
14 83
14 99
14 30
14 79
14 75
14 88
14 97
14 127
14 128
15 16
15 17
15 61
16 17
16 96
17 59
17 60
17 74
17 75
17 80
17 81
17 94
17 95
17 57
17 98
17 38
17 100
17 101
17 102
17 105
17 106
17 110
17 116
17 34
17 104
17 121
17 77
17 118
18 19
19 95
20 21
20 22
20 125
21 22
21 116
22 44
22 45
22 48
22 49
22 50
22 51
22 65
22 89
22 31
22 42
22 99
22 114
22 113
22 122
23 24
23 51
23 55
23 54
23 72
23 82
23 87
23 107
23 108
23 86
23 48
23 111
23 71
23 123
24 39
25 26
26 32
26 33
27 28
27 105
28 33
28 119
29 30
29 31
29 53
29 54
29 69
29 90
29 81
29 111
29 122
29 73
29 108
30 31
30 79
31 42
32 33
32 52
33 42
33 43
33 63
33 64
33 65
33 68
33 69
33 86
33 72
33 88
33 67
33 93
33 35
33 97
33 40
33 70
33 109
33 110
33 60
33 114
33 119
34 35
34 104
35 97
36 37
36 94
38 39
38 100
40 41
40 70
41 129
42 43
44 45
44 52
46 47
46 73
47 56
48 49
48 111
50 51
50 90
51 55
53 54
54 72
57 58
57 98
59 60
60 114
61 62
63 101
64 65
64 92
65 89
66 67
66 98
67 93
68 69
69 90
70 71
71 123
72 88
73 108
74 75
75 88
76 77
76 82
77 118
78 79
80 81
80 85
81 111
82 87
83 84
83 99
89 91
91 126
94 95
96 115
97 127
99 114
101 102
103 104
105 106
106 124
107 108
109 110
110 116
112 113
113 122
117 118
